# Objective value = 52
WA1n 0
WA1p 0
WA2n 1
WA2p 0
WB1n 0
WB1p 0
WB2n 0
WB2p 1
WC1n 1
WC1p 0
WD1n 1
WD1p 0
WD2n 1
WD2p 0
WE1n 2
WE1p 0
WE2n 1
WE2p 0
WF1n 2
WF1p 0
WF2n 1
WF2p 0
WG1n 0
WG1p 6
WG2n 0
WG2p 1
WH1n 0
WH1p 6
WH2n 0
WH2p 1
WI1n 15
WI1p 0
WI2n 1
WI2p 0
WT1n 1
WT1p 0
WT2n 1
WT2p 0
5 7
a 0
b 0
c 0
d 1
e 0
f 0
g 0
h 0
i 0
j 0
k 0
l 1
m 1
n 1
o 1
p 0
q 0
r 0
s 0
